c Reduced graph for DSJC125.5gb generated by Cyril Grelier
p edge 125 3891
e 1 2
e 1 4
e 1 5
e 1 7
e 1 9
e 1 10
e 1 11
e 1 12
e 1 14
e 1 15
e 1 18
e 1 19
e 1 21
e 1 22
e 1 25
e 1 26
e 1 31
e 1 32
e 1 33
e 1 34
e 1 35
e 1 36
e 1 37
e 1 41
e 1 43
e 1 44
e 1 46
e 1 47
e 1 48
e 1 49
e 1 52
e 1 53
e 1 54
e 1 56
e 1 57
e 1 58
e 1 59
e 1 60
e 1 61
e 1 62
e 1 65
e 1 66
e 1 68
e 1 69
e 1 72
e 1 73
e 1 74
e 1 75
e 1 76
e 1 78
e 1 80
e 1 82
e 1 84
e 1 85
e 1 88
e 1 89
e 1 90
e 1 91
e 1 93
e 1 94
e 1 97
e 1 98
e 1 99
e 1 101
e 1 103
e 1 104
e 1 106
e 1 109
e 1 113
e 1 114
e 1 115
e 1 119
e 1 120
e 1 121
e 1 124
e 2 3
e 2 4
e 2 5
e 2 6
e 2 7
e 2 8
e 2 9
e 2 10
e 2 11
e 2 12
e 2 13
e 2 16
e 2 17
e 2 19
e 2 20
e 2 21
e 2 23
e 2 24
e 2 25
e 2 27
e 2 30
e 2 31
e 2 36
e 2 37
e 2 38
e 2 39
e 2 40
e 2 42
e 2 43
e 2 44
e 2 45
e 2 46
e 2 47
e 2 50
e 2 52
e 2 53
e 2 55
e 2 58
e 2 59
e 2 60
e 2 62
e 2 63
e 2 65
e 2 68
e 2 70
e 2 71
e 2 73
e 2 74
e 2 75
e 2 77
e 2 80
e 2 81
e 2 82
e 2 84
e 2 85
e 2 87
e 2 88
e 2 89
e 2 94
e 2 95
e 2 98
e 2 103
e 2 104
e 2 105
e 2 109
e 2 112
e 2 113
e 2 115
e 2 119
e 2 120
e 2 121
e 2 122
e 2 124
e 3 5
e 3 6
e 3 7
e 3 10
e 3 11
e 3 13
e 3 14
e 3 15
e 3 16
e 3 17
e 3 18
e 3 19
e 3 22
e 3 23
e 3 27
e 3 29
e 3 30
e 3 31
e 3 32
e 3 33
e 3 35
e 3 36
e 3 37
e 3 38
e 3 39
e 3 41
e 3 42
e 3 44
e 3 45
e 3 47
e 3 49
e 3 52
e 3 55
e 3 58
e 3 61
e 3 64
e 3 65
e 3 68
e 3 71
e 3 73
e 3 77
e 3 78
e 3 80
e 3 82
e 3 83
e 3 85
e 3 86
e 3 87
e 3 88
e 3 89
e 3 90
e 3 91
e 3 92
e 3 94
e 3 96
e 3 97
e 3 98
e 3 99
e 3 102
e 3 103
e 3 105
e 3 107
e 3 108
e 3 111
e 3 113
e 3 117
e 3 118
e 3 121
e 3 122
e 3 123
e 3 124
e 3 125
e 4 5
e 4 6
e 4 7
e 4 10
e 4 11
e 4 12
e 4 14
e 4 16
e 4 17
e 4 18
e 4 19
e 4 20
e 4 21
e 4 22
e 4 24
e 4 25
e 4 28
e 4 29
e 4 30
e 4 32
e 4 34
e 4 36
e 4 37
e 4 38
e 4 39
e 4 41
e 4 44
e 4 46
e 4 48
e 4 50
e 4 51
e 4 52
e 4 54
e 4 56
e 4 57
e 4 59
e 4 60
e 4 62
e 4 63
e 4 69
e 4 70
e 4 72
e 4 74
e 4 77
e 4 78
e 4 79
e 4 81
e 4 82
e 4 83
e 4 84
e 4 85
e 4 88
e 4 91
e 4 93
e 4 98
e 4 100
e 4 101
e 4 103
e 4 105
e 4 106
e 4 107
e 4 108
e 4 109
e 4 111
e 4 112
e 4 113
e 4 117
e 4 119
e 4 121
e 4 122
e 4 125
e 5 6
e 5 9
e 5 10
e 5 11
e 5 13
e 5 14
e 5 16
e 5 17
e 5 18
e 5 19
e 5 23
e 5 25
e 5 26
e 5 27
e 5 28
e 5 29
e 5 30
e 5 31
e 5 34
e 5 37
e 5 39
e 5 40
e 5 41
e 5 43
e 5 44
e 5 45
e 5 48
e 5 50
e 5 52
e 5 54
e 5 55
e 5 56
e 5 58
e 5 59
e 5 63
e 5 66
e 5 67
e 5 69
e 5 70
e 5 72
e 5 77
e 5 79
e 5 80
e 5 82
e 5 83
e 5 84
e 5 85
e 5 86
e 5 87
e 5 88
e 5 89
e 5 91
e 5 92
e 5 93
e 5 97
e 5 98
e 5 100
e 5 102
e 5 107
e 5 110
e 5 112
e 5 114
e 5 115
e 5 117
e 5 118
e 5 120
e 5 122
e 5 124
e 5 125
e 6 7
e 6 8
e 6 9
e 6 11
e 6 12
e 6 13
e 6 15
e 6 16
e 6 17
e 6 18
e 6 19
e 6 20
e 6 22
e 6 23
e 6 24
e 6 25
e 6 26
e 6 27
e 6 29
e 6 33
e 6 34
e 6 35
e 6 37
e 6 38
e 6 39
e 6 40
e 6 41
e 6 42
e 6 43
e 6 44
e 6 45
e 6 49
e 6 50
e 6 52
e 6 54
e 6 55
e 6 59
e 6 63
e 6 67
e 6 68
e 6 69
e 6 70
e 6 72
e 6 73
e 6 77
e 6 78
e 6 79
e 6 82
e 6 83
e 6 84
e 6 85
e 6 86
e 6 87
e 6 90
e 6 92
e 6 93
e 6 98
e 6 99
e 6 100
e 6 101
e 6 107
e 6 108
e 6 110
e 6 114
e 6 115
e 6 122
e 6 123
e 6 125
e 7 8
e 7 9
e 7 12
e 7 13
e 7 15
e 7 16
e 7 17
e 7 20
e 7 22
e 7 23
e 7 25
e 7 26
e 7 27
e 7 29
e 7 32
e 7 33
e 7 34
e 7 36
e 7 37
e 7 39
e 7 41
e 7 43
e 7 45
e 7 46
e 7 47
e 7 48
e 7 50
e 7 51
e 7 53
e 7 54
e 7 56
e 7 57
e 7 59
e 7 60
e 7 61
e 7 63
e 7 65
e 7 66
e 7 71
e 7 73
e 7 75
e 7 76
e 7 77
e 7 78
e 7 79
e 7 80
e 7 83
e 7 86
e 7 88
e 7 89
e 7 92
e 7 93
e 7 94
e 7 97
e 7 102
e 7 104
e 7 105
e 7 106
e 7 110
e 7 111
e 7 113
e 7 114
e 7 115
e 7 117
e 7 118
e 7 119
e 7 120
e 8 11
e 8 12
e 8 14
e 8 15
e 8 16
e 8 18
e 8 22
e 8 23
e 8 24
e 8 25
e 8 26
e 8 27
e 8 28
e 8 29
e 8 30
e 8 31
e 8 33
e 8 34
e 8 35
e 8 38
e 8 41
e 8 42
e 8 46
e 8 48
e 8 49
e 8 50
e 8 51
e 8 52
e 8 56
e 8 57
e 8 59
e 8 60
e 8 61
e 8 62
e 8 64
e 8 66
e 8 68
e 8 70
e 8 71
e 8 72
e 8 74
e 8 77
e 8 78
e 8 80
e 8 82
e 8 86
e 8 88
e 8 90
e 8 94
e 8 96
e 8 97
e 8 98
e 8 99
e 8 100
e 8 101
e 8 103
e 8 106
e 8 107
e 8 108
e 8 111
e 8 112
e 8 114
e 8 115
e 8 116
e 8 118
e 8 122
e 8 124
e 8 125
e 9 10
e 9 11
e 9 15
e 9 16
e 9 17
e 9 19
e 9 20
e 9 22
e 9 23
e 9 24
e 9 25
e 9 26
e 9 27
e 9 28
e 9 29
e 9 30
e 9 31
e 9 33
e 9 34
e 9 37
e 9 39
e 9 41
e 9 43
e 9 45
e 9 46
e 9 48
e 9 49
e 9 50
e 9 51
e 9 52
e 9 53
e 9 54
e 9 55
e 9 56
e 9 57
e 9 59
e 9 60
e 9 62
e 9 66
e 9 67
e 9 69
e 9 70
e 9 71
e 9 72
e 9 74
e 9 76
e 9 79
e 9 80
e 9 82
e 9 83
e 9 86
e 9 87
e 9 90
e 9 91
e 9 95
e 9 99
e 9 100
e 9 108
e 9 109
e 9 112
e 9 115
e 9 116
e 9 117
e 9 119
e 9 122
e 9 125
e 10 11
e 10 12
e 10 14
e 10 20
e 10 21
e 10 23
e 10 24
e 10 26
e 10 27
e 10 28
e 10 29
e 10 32
e 10 33
e 10 37
e 10 38
e 10 39
e 10 41
e 10 44
e 10 45
e 10 46
e 10 48
e 10 50
e 10 51
e 10 52
e 10 55
e 10 57
e 10 58
e 10 59
e 10 60
e 10 62
e 10 63
e 10 67
e 10 68
e 10 69
e 10 71
e 10 72
e 10 75
e 10 76
e 10 79
e 10 80
e 10 81
e 10 83
e 10 84
e 10 85
e 10 87
e 10 88
e 10 90
e 10 93
e 10 97
e 10 98
e 10 102
e 10 104
e 10 106
e 10 108
e 10 110
e 10 111
e 10 112
e 10 114
e 10 115
e 10 118
e 10 120
e 10 121
e 10 122
e 10 123
e 11 12
e 11 13
e 11 16
e 11 17
e 11 18
e 11 19
e 11 21
e 11 22
e 11 23
e 11 26
e 11 27
e 11 28
e 11 32
e 11 35
e 11 37
e 11 38
e 11 39
e 11 40
e 11 42
e 11 43
e 11 44
e 11 47
e 11 48
e 11 54
e 11 56
e 11 57
e 11 58
e 11 60
e 11 62
e 11 63
e 11 67
e 11 70
e 11 71
e 11 73
e 11 74
e 11 76
e 11 77
e 11 80
e 11 81
e 11 82
e 11 84
e 11 86
e 11 87
e 11 88
e 11 89
e 11 92
e 11 94
e 11 96
e 11 100
e 11 101
e 11 103
e 11 104
e 11 105
e 11 106
e 11 107
e 11 108
e 11 110
e 11 112
e 11 116
e 11 118
e 11 120
e 12 14
e 12 16
e 12 17
e 12 19
e 12 20
e 12 21
e 12 23
e 12 24
e 12 26
e 12 30
e 12 31
e 12 32
e 12 34
e 12 35
e 12 37
e 12 38
e 12 39
e 12 40
e 12 42
e 12 45
e 12 46
e 12 47
e 12 49
e 12 50
e 12 53
e 12 54
e 12 58
e 12 59
e 12 60
e 12 61
e 12 62
e 12 64
e 12 65
e 12 67
e 12 71
e 12 72
e 12 74
e 12 78
e 12 79
e 12 84
e 12 87
e 12 88
e 12 90
e 12 93
e 12 95
e 12 97
e 12 98
e 12 99
e 12 100
e 12 101
e 12 102
e 12 103
e 12 105
e 12 110
e 12 115
e 12 117
e 12 118
e 12 119
e 12 122
e 12 123
e 12 124
e 13 14
e 13 15
e 13 16
e 13 17
e 13 18
e 13 19
e 13 20
e 13 22
e 13 23
e 13 25
e 13 28
e 13 31
e 13 32
e 13 33
e 13 34
e 13 36
e 13 39
e 13 40
e 13 41
e 13 43
e 13 44
e 13 47
e 13 50
e 13 52
e 13 54
e 13 55
e 13 56
e 13 57
e 13 58
e 13 59
e 13 60
e 13 63
e 13 64
e 13 65
e 13 66
e 13 67
e 13 69
e 13 70
e 13 71
e 13 72
e 13 77
e 13 80
e 13 85
e 13 87
e 13 88
e 13 92
e 13 95
e 13 97
e 13 101
e 13 102
e 13 107
e 13 108
e 13 110
e 13 112
e 13 114
e 13 115
e 13 116
e 13 117
e 13 119
e 13 120
e 13 121
e 13 122
e 13 125
e 14 15
e 14 16
e 14 17
e 14 18
e 14 19
e 14 20
e 14 24
e 14 25
e 14 28
e 14 30
e 14 32
e 14 33
e 14 34
e 14 35
e 14 36
e 14 37
e 14 39
e 14 40
e 14 42
e 14 45
e 14 52
e 14 54
e 14 55
e 14 56
e 14 58
e 14 61
e 14 62
e 14 64
e 14 65
e 14 67
e 14 68
e 14 69
e 14 71
e 14 74
e 14 75
e 14 76
e 14 78
e 14 80
e 14 83
e 14 84
e 14 85
e 14 86
e 14 90
e 14 94
e 14 95
e 14 101
e 14 102
e 14 103
e 14 104
e 14 105
e 14 107
e 14 109
e 14 111
e 14 112
e 14 114
e 14 116
e 14 117
e 14 121
e 14 122
e 14 123
e 14 124
e 15 16
e 15 20
e 15 22
e 15 26
e 15 27
e 15 28
e 15 29
e 15 30
e 15 32
e 15 33
e 15 34
e 15 35
e 15 36
e 15 37
e 15 38
e 15 40
e 15 41
e 15 42
e 15 44
e 15 45
e 15 46
e 15 47
e 15 48
e 15 51
e 15 53
e 15 54
e 15 56
e 15 57
e 15 58
e 15 60
e 15 62
e 15 63
e 15 65
e 15 67
e 15 68
e 15 69
e 15 71
e 15 74
e 15 75
e 15 76
e 15 77
e 15 79
e 15 82
e 15 83
e 15 84
e 15 86
e 15 89
e 15 93
e 15 95
e 15 98
e 15 99
e 15 101
e 15 108
e 15 111
e 15 112
e 15 114
e 15 115
e 15 119
e 15 120
e 15 122
e 15 124
e 16 22
e 16 23
e 16 24
e 16 25
e 16 27
e 16 30
e 16 31
e 16 34
e 16 35
e 16 36
e 16 38
e 16 40
e 16 41
e 16 44
e 16 45
e 16 48
e 16 49
e 16 50
e 16 51
e 16 52
e 16 54
e 16 55
e 16 56
e 16 57
e 16 61
e 16 64
e 16 67
e 16 68
e 16 69
e 16 73
e 16 74
e 16 77
e 16 78
e 16 79
e 16 83
e 16 85
e 16 86
e 16 90
e 16 91
e 16 93
e 16 95
e 16 96
e 16 97
e 16 105
e 16 107
e 16 110
e 16 111
e 16 113
e 16 114
e 16 115
e 16 116
e 16 118
e 16 121
e 16 122
e 16 123
e 16 124
e 17 19
e 17 20
e 17 21
e 17 23
e 17 24
e 17 26
e 17 27
e 17 31
e 17 33
e 17 34
e 17 35
e 17 37
e 17 39
e 17 41
e 17 42
e 17 45
e 17 46
e 17 48
e 17 49
e 17 51
e 17 53
e 17 55
e 17 57
e 17 60
e 17 61
e 17 62
e 17 65
e 17 67
e 17 69
e 17 70
e 17 71
e 17 72
e 17 75
e 17 76
e 17 77
e 17 79
e 17 80
e 17 82
e 17 89
e 17 90
e 17 91
e 17 96
e 17 97
e 17 98
e 17 99
e 17 100
e 17 102
e 17 106
e 17 107
e 17 108
e 17 109
e 17 114
e 17 116
e 17 117
e 17 118
e 17 120
e 17 124
e 18 19
e 18 20
e 18 21
e 18 22
e 18 23
e 18 24
e 18 27
e 18 28
e 18 29
e 18 30
e 18 33
e 18 35
e 18 38
e 18 40
e 18 41
e 18 42
e 18 44
e 18 45
e 18 46
e 18 47
e 18 50
e 18 53
e 18 54
e 18 55
e 18 56
e 18 57
e 18 60
e 18 63
e 18 64
e 18 65
e 18 68
e 18 69
e 18 70
e 18 71
e 18 72
e 18 73
e 18 75
e 18 76
e 18 79
e 18 80
e 18 86
e 18 87
e 18 88
e 18 92
e 18 97
e 18 98
e 18 100
e 18 103
e 18 106
e 18 108
e 18 109
e 18 110
e 18 113
e 18 114
e 18 115
e 18 117
e 18 119
e 18 122
e 18 123
e 19 21
e 19 22
e 19 23
e 19 24
e 19 25
e 19 26
e 19 27
e 19 28
e 19 31
e 19 34
e 19 38
e 19 42
e 19 43
e 19 44
e 19 47
e 19 48
e 19 49
e 19 51
e 19 53
e 19 55
e 19 57
e 19 58
e 19 60
e 19 63
e 19 64
e 19 67
e 19 73
e 19 78
e 19 80
e 19 81
e 19 83
e 19 84
e 19 86
e 19 87
e 19 89
e 19 90
e 19 91
e 19 92
e 19 97
e 19 98
e 19 101
e 19 105
e 19 108
e 19 109
e 19 110
e 19 112
e 19 113
e 19 115
e 19 116
e 19 117
e 19 118
e 19 120
e 19 121
e 19 122
e 19 125
e 20 22
e 20 24
e 20 26
e 20 29
e 20 32
e 20 33
e 20 35
e 20 36
e 20 37
e 20 43
e 20 44
e 20 45
e 20 46
e 20 47
e 20 51
e 20 53
e 20 55
e 20 56
e 20 57
e 20 62
e 20 63
e 20 65
e 20 66
e 20 67
e 20 68
e 20 69
e 20 71
e 20 73
e 20 76
e 20 79
e 20 81
e 20 82
e 20 83
e 20 84
e 20 87
e 20 90
e 20 93
e 20 95
e 20 96
e 20 99
e 20 100
e 20 101
e 20 104
e 20 105
e 20 106
e 20 107
e 20 109
e 20 110
e 20 111
e 20 112
e 20 117
e 20 119
e 20 120
e 20 121
e 20 124
e 20 125
e 21 22
e 21 23
e 21 24
e 21 26
e 21 28
e 21 30
e 21 31
e 21 32
e 21 33
e 21 34
e 21 35
e 21 36
e 21 37
e 21 38
e 21 43
e 21 44
e 21 46
e 21 48
e 21 49
e 21 50
e 21 51
e 21 55
e 21 57
e 21 58
e 21 64
e 21 66
e 21 72
e 21 75
e 21 76
e 21 77
e 21 85
e 21 87
e 21 89
e 21 91
e 21 93
e 21 94
e 21 95
e 21 97
e 21 99
e 21 101
e 21 102
e 21 103
e 21 106
e 21 107
e 21 108
e 21 109
e 21 110
e 21 111
e 21 112
e 21 113
e 21 114
e 21 115
e 21 117
e 21 118
e 21 120
e 21 121
e 21 122
e 21 123
e 21 125
e 22 23
e 22 25
e 22 26
e 22 27
e 22 28
e 22 29
e 22 31
e 22 34
e 22 39
e 22 40
e 22 43
e 22 46
e 22 47
e 22 48
e 22 49
e 22 50
e 22 51
e 22 55
e 22 58
e 22 61
e 22 63
e 22 64
e 22 65
e 22 66
e 22 68
e 22 69
e 22 70
e 22 73
e 22 77
e 22 81
e 22 87
e 22 89
e 22 90
e 22 92
e 22 93
e 22 98
e 22 99
e 22 100
e 22 102
e 22 103
e 22 106
e 22 108
e 22 109
e 22 112
e 22 113
e 22 114
e 22 115
e 22 116
e 22 117
e 22 118
e 22 121
e 22 122
e 22 124
e 23 24
e 23 25
e 23 26
e 23 28
e 23 29
e 23 30
e 23 31
e 23 32
e 23 33
e 23 34
e 23 35
e 23 36
e 23 37
e 23 38
e 23 39
e 23 43
e 23 45
e 23 53
e 23 54
e 23 56
e 23 58
e 23 60
e 23 64
e 23 65
e 23 67
e 23 69
e 23 70
e 23 72
e 23 73
e 23 79
e 23 81
e 23 83
e 23 84
e 23 85
e 23 86
e 23 87
e 23 89
e 23 90
e 23 91
e 23 92
e 23 93
e 23 95
e 23 99
e 23 101
e 23 106
e 23 109
e 23 112
e 23 113
e 23 116
e 23 117
e 24 29
e 24 30
e 24 33
e 24 35
e 24 36
e 24 37
e 24 38
e 24 42
e 24 43
e 24 44
e 24 45
e 24 47
e 24 48
e 24 50
e 24 53
e 24 55
e 24 56
e 24 57
e 24 58
e 24 59
e 24 62
e 24 65
e 24 68
e 24 71
e 24 73
e 24 74
e 24 76
e 24 77
e 24 79
e 24 80
e 24 83
e 24 84
e 24 86
e 24 87
e 24 88
e 24 90
e 24 91
e 24 92
e 24 93
e 24 97
e 24 98
e 24 99
e 24 101
e 24 102
e 24 107
e 24 110
e 24 113
e 24 117
e 24 119
e 24 121
e 24 122
e 24 125
e 25 27
e 25 30
e 25 31
e 25 32
e 25 33
e 25 34
e 25 35
e 25 37
e 25 38
e 25 39
e 25 41
e 25 46
e 25 47
e 25 48
e 25 49
e 25 50
e 25 51
e 25 55
e 25 57
e 25 60
e 25 65
e 25 66
e 25 69
e 25 70
e 25 71
e 25 72
e 25 75
e 25 76
e 25 77
e 25 78
e 25 81
e 25 82
e 25 86
e 25 89
e 25 90
e 25 92
e 25 93
e 25 94
e 25 95
e 25 96
e 25 98
e 25 100
e 25 101
e 25 104
e 25 107
e 25 108
e 25 109
e 25 111
e 25 114
e 25 115
e 25 117
e 25 120
e 25 122
e 26 27
e 26 28
e 26 29
e 26 31
e 26 32
e 26 35
e 26 36
e 26 38
e 26 39
e 26 44
e 26 45
e 26 47
e 26 49
e 26 53
e 26 54
e 26 56
e 26 57
e 26 58
e 26 60
e 26 61
e 26 62
e 26 63
e 26 64
e 26 66
e 26 70
e 26 71
e 26 78
e 26 79
e 26 81
e 26 82
e 26 84
e 26 85
e 26 86
e 26 87
e 26 88
e 26 92
e 26 93
e 26 94
e 26 95
e 26 99
e 26 103
e 26 106
e 26 109
e 26 110
e 26 112
e 26 113
e 26 116
e 26 118
e 26 123
e 26 124
e 26 125
e 27 28
e 27 38
e 27 43
e 27 46
e 27 49
e 27 52
e 27 53
e 27 55
e 27 57
e 27 59
e 27 60
e 27 63
e 27 64
e 27 65
e 27 66
e 27 67
e 27 69
e 27 70
e 27 71
e 27 73
e 27 74
e 27 76
e 27 77
e 27 78
e 27 80
e 27 81
e 27 82
e 27 83
e 27 85
e 27 86
e 27 87
e 27 89
e 27 91
e 27 92
e 27 93
e 27 96
e 27 98
e 27 100
e 27 101
e 27 103
e 27 106
e 27 109
e 27 111
e 27 112
e 27 113
e 27 117
e 27 118
e 27 119
e 27 120
e 27 124
e 28 31
e 28 32
e 28 33
e 28 34
e 28 36
e 28 37
e 28 39
e 28 40
e 28 41
e 28 42
e 28 45
e 28 46
e 28 47
e 28 48
e 28 49
e 28 50
e 28 52
e 28 53
e 28 59
e 28 63
e 28 64
e 28 65
e 28 66
e 28 68
e 28 70
e 28 71
e 28 74
e 28 76
e 28 77
e 28 78
e 28 79
e 28 80
e 28 81
e 28 82
e 28 86
e 28 89
e 28 92
e 28 93
e 28 96
e 28 100
e 28 102
e 28 103
e 28 104
e 28 105
e 28 106
e 28 113
e 28 114
e 28 115
e 28 118
e 28 123
e 28 125
e 29 30
e 29 32
e 29 33
e 29 34
e 29 36
e 29 39
e 29 41
e 29 43
e 29 44
e 29 46
e 29 47
e 29 48
e 29 49
e 29 54
e 29 57
e 29 59
e 29 60
e 29 61
e 29 62
e 29 63
e 29 64
e 29 66
e 29 68
e 29 70
e 29 71
e 29 72
e 29 74
e 29 76
e 29 83
e 29 84
e 29 85
e 29 86
e 29 87
e 29 88
e 29 91
e 29 92
e 29 94
e 29 101
e 29 102
e 29 103
e 29 107
e 29 108
e 29 109
e 29 110
e 29 111
e 29 114
e 29 116
e 29 117
e 29 120
e 29 122
e 29 123
e 29 125
e 30 32
e 30 34
e 30 35
e 30 37
e 30 38
e 30 39
e 30 41
e 30 42
e 30 45
e 30 46
e 30 47
e 30 51
e 30 52
e 30 54
e 30 58
e 30 59
e 30 60
e 30 61
e 30 63
e 30 64
e 30 66
e 30 67
e 30 68
e 30 69
e 30 70
e 30 71
e 30 73
e 30 74
e 30 75
e 30 78
e 30 79
e 30 80
e 30 81
e 30 84
e 30 85
e 30 88
e 30 89
e 30 90
e 30 92
e 30 96
e 30 97
e 30 98
e 30 104
e 30 105
e 30 110
e 30 111
e 30 113
e 30 117
e 30 120
e 30 122
e 30 123
e 31 32
e 31 34
e 31 35
e 31 36
e 31 39
e 31 40
e 31 42
e 31 43
e 31 44
e 31 46
e 31 47
e 31 51
e 31 53
e 31 54
e 31 55
e 31 56
e 31 58
e 31 59
e 31 61
e 31 62
e 31 66
e 31 67
e 31 68
e 31 69
e 31 70
e 31 72
e 31 75
e 31 78
e 31 85
e 31 89
e 31 90
e 31 91
e 31 93
e 31 94
e 31 96
e 31 98
e 31 99
e 31 101
e 31 102
e 31 103
e 31 106
e 31 107
e 31 110
e 31 113
e 31 120
e 31 121
e 31 122
e 31 123
e 31 124
e 32 33
e 32 35
e 32 37
e 32 39
e 32 40
e 32 43
e 32 44
e 32 48
e 32 50
e 32 51
e 32 52
e 32 53
e 32 54
e 32 56
e 32 59
e 32 65
e 32 66
e 32 70
e 32 71
e 32 72
e 32 73
e 32 74
e 32 75
e 32 76
e 32 77
e 32 80
e 32 82
e 32 84
e 32 85
e 32 89
e 32 90
e 32 92
e 32 93
e 32 94
e 32 96
e 32 97
e 32 104
e 32 107
e 32 109
e 32 111
e 32 113
e 32 114
e 32 116
e 32 117
e 32 118
e 32 120
e 32 125
e 33 37
e 33 39
e 33 40
e 33 43
e 33 45
e 33 49
e 33 51
e 33 53
e 33 54
e 33 55
e 33 56
e 33 57
e 33 59
e 33 60
e 33 62
e 33 63
e 33 67
e 33 70
e 33 73
e 33 76
e 33 78
e 33 80
e 33 81
e 33 82
e 33 91
e 33 93
e 33 96
e 33 97
e 33 98
e 33 100
e 33 101
e 33 103
e 33 104
e 33 105
e 33 106
e 33 109
e 33 111
e 33 112
e 33 114
e 33 115
e 33 116
e 33 117
e 33 120
e 33 121
e 33 123
e 33 125
e 34 36
e 34 37
e 34 40
e 34 41
e 34 42
e 34 45
e 34 46
e 34 49
e 34 50
e 34 51
e 34 52
e 34 53
e 34 54
e 34 56
e 34 57
e 34 61
e 34 62
e 34 63
e 34 69
e 34 70
e 34 74
e 34 76
e 34 77
e 34 78
e 34 81
e 34 83
e 34 87
e 34 90
e 34 92
e 34 93
e 34 99
e 34 100
e 34 102
e 34 106
e 34 107
e 34 108
e 34 109
e 34 110
e 34 114
e 34 115
e 34 118
e 34 119
e 34 120
e 34 121
e 35 37
e 35 39
e 35 42
e 35 44
e 35 45
e 35 47
e 35 49
e 35 51
e 35 52
e 35 55
e 35 57
e 35 58
e 35 59
e 35 60
e 35 61
e 35 62
e 35 64
e 35 68
e 35 70
e 35 73
e 35 75
e 35 76
e 35 81
e 35 83
e 35 87
e 35 89
e 35 90
e 35 92
e 35 93
e 35 96
e 35 98
e 35 99
e 35 100
e 35 101
e 35 103
e 35 104
e 35 107
e 35 108
e 35 110
e 35 111
e 35 112
e 35 118
e 35 119
e 35 124
e 35 125
e 36 43
e 36 44
e 36 45
e 36 47
e 36 48
e 36 49
e 36 50
e 36 51
e 36 54
e 36 58
e 36 59
e 36 60
e 36 61
e 36 63
e 36 64
e 36 65
e 36 69
e 36 70
e 36 71
e 36 72
e 36 73
e 36 77
e 36 78
e 36 79
e 36 81
e 36 83
e 36 86
e 36 87
e 36 91
e 36 92
e 36 94
e 36 95
e 36 96
e 36 97
e 36 99
e 36 100
e 36 102
e 36 107
e 36 112
e 36 113
e 36 115
e 36 118
e 36 119
e 36 121
e 36 122
e 36 123
e 36 125
e 37 39
e 37 40
e 37 41
e 37 43
e 37 44
e 37 45
e 37 46
e 37 47
e 37 49
e 37 52
e 37 53
e 37 56
e 37 57
e 37 59
e 37 63
e 37 65
e 37 66
e 37 70
e 37 71
e 37 75
e 37 77
e 37 78
e 37 79
e 37 81
e 37 82
e 37 86
e 37 88
e 37 89
e 37 92
e 37 95
e 37 97
e 37 99
e 37 101
e 37 102
e 37 104
e 37 107
e 37 110
e 37 116
e 37 119
e 37 121
e 38 40
e 38 41
e 38 42
e 38 48
e 38 49
e 38 50
e 38 51
e 38 52
e 38 53
e 38 54
e 38 56
e 38 59
e 38 60
e 38 62
e 38 64
e 38 65
e 38 69
e 38 72
e 38 73
e 38 75
e 38 77
e 38 78
e 38 79
e 38 80
e 38 85
e 38 87
e 38 88
e 38 89
e 38 90
e 38 91
e 38 92
e 38 93
e 38 95
e 38 96
e 38 97
e 38 98
e 38 99
e 38 102
e 38 104
e 38 108
e 38 109
e 38 115
e 38 116
e 38 121
e 38 122
e 38 123
e 39 42
e 39 45
e 39 46
e 39 50
e 39 51
e 39 52
e 39 54
e 39 55
e 39 56
e 39 57
e 39 58
e 39 60
e 39 61
e 39 62
e 39 64
e 39 65
e 39 66
e 39 67
e 39 68
e 39 70
e 39 71
e 39 72
e 39 75
e 39 76
e 39 79
e 39 81
e 39 84
e 39 86
e 39 95
e 39 96
e 39 97
e 39 98
e 39 101
e 39 102
e 39 105
e 39 106
e 39 110
e 39 112
e 39 123
e 39 125
e 40 44
e 40 45
e 40 46
e 40 48
e 40 51
e 40 52
e 40 53
e 40 54
e 40 57
e 40 58
e 40 59
e 40 64
e 40 65
e 40 66
e 40 67
e 40 69
e 40 70
e 40 71
e 40 74
e 40 75
e 40 77
e 40 79
e 40 80
e 40 81
e 40 82
e 40 83
e 40 84
e 40 85
e 40 87
e 40 88
e 40 90
e 40 91
e 40 92
e 40 95
e 40 96
e 40 97
e 40 100
e 40 101
e 40 107
e 40 109
e 40 111
e 40 112
e 40 116
e 40 119
e 40 120
e 40 121
e 40 125
e 41 45
e 41 46
e 41 47
e 41 48
e 41 50
e 41 51
e 41 52
e 41 55
e 41 56
e 41 59
e 41 61
e 41 63
e 41 64
e 41 66
e 41 67
e 41 68
e 41 71
e 41 75
e 41 77
e 41 78
e 41 80
e 41 85
e 41 86
e 41 87
e 41 88
e 41 92
e 41 94
e 41 97
e 41 99
e 41 101
e 41 103
e 41 104
e 41 114
e 41 115
e 41 116
e 41 117
e 41 118
e 41 119
e 41 120
e 41 121
e 41 123
e 41 124
e 41 125
e 42 43
e 42 44
e 42 47
e 42 48
e 42 49
e 42 50
e 42 52
e 42 56
e 42 57
e 42 59
e 42 61
e 42 62
e 42 64
e 42 67
e 42 68
e 42 69
e 42 74
e 42 75
e 42 77
e 42 79
e 42 81
e 42 82
e 42 84
e 42 85
e 42 93
e 42 94
e 42 95
e 42 96
e 42 97
e 42 98
e 42 100
e 42 104
e 42 106
e 42 107
e 42 110
e 42 111
e 42 114
e 42 116
e 42 119
e 42 120
e 42 121
e 42 122
e 42 123
e 42 124
e 42 125
e 43 44
e 43 45
e 43 46
e 43 47
e 43 48
e 43 53
e 43 55
e 43 57
e 43 58
e 43 59
e 43 61
e 43 62
e 43 65
e 43 66
e 43 69
e 43 71
e 43 73
e 43 75
e 43 76
e 43 78
e 43 81
e 43 82
e 43 83
e 43 84
e 43 86
e 43 88
e 43 89
e 43 98
e 43 101
e 43 102
e 43 103
e 43 104
e 43 105
e 43 106
e 43 108
e 43 109
e 43 110
e 43 111
e 43 115
e 43 117
e 43 120
e 43 124
e 44 46
e 44 52
e 44 53
e 44 54
e 44 55
e 44 57
e 44 59
e 44 61
e 44 62
e 44 63
e 44 64
e 44 65
e 44 67
e 44 70
e 44 72
e 44 78
e 44 79
e 44 82
e 44 83
e 44 88
e 44 90
e 44 91
e 44 92
e 44 93
e 44 94
e 44 96
e 44 97
e 44 102
e 44 103
e 44 104
e 44 106
e 44 107
e 44 110
e 44 113
e 44 118
e 44 119
e 44 120
e 44 125
e 45 46
e 45 48
e 45 49
e 45 51
e 45 53
e 45 54
e 45 55
e 45 58
e 45 59
e 45 61
e 45 68
e 45 70
e 45 72
e 45 73
e 45 74
e 45 78
e 45 80
e 45 85
e 45 92
e 45 93
e 45 94
e 45 95
e 45 100
e 45 101
e 45 103
e 45 104
e 45 106
e 45 109
e 45 111
e 45 115
e 45 116
e 45 117
e 45 118
e 45 122
e 45 124
e 45 125
e 46 53
e 46 54
e 46 56
e 46 58
e 46 61
e 46 62
e 46 65
e 46 66
e 46 69
e 46 75
e 46 76
e 46 77
e 46 79
e 46 81
e 46 82
e 46 83
e 46 87
e 46 88
e 46 92
e 46 97
e 46 98
e 46 101
e 46 103
e 46 104
e 46 106
e 46 107
e 46 108
e 46 111
e 46 112
e 46 113
e 46 114
e 46 115
e 46 117
e 46 118
e 46 120
e 46 123
e 47 48
e 47 49
e 47 50
e 47 52
e 47 53
e 47 54
e 47 55
e 47 56
e 47 57
e 47 58
e 47 59
e 47 60
e 47 61
e 47 63
e 47 64
e 47 65
e 47 66
e 47 67
e 47 69
e 47 70
e 47 78
e 47 82
e 47 84
e 47 85
e 47 86
e 47 87
e 47 89
e 47 93
e 47 94
e 47 95
e 47 99
e 47 102
e 47 105
e 47 107
e 47 109
e 47 114
e 47 115
e 47 119
e 47 120
e 48 49
e 48 55
e 48 56
e 48 59
e 48 60
e 48 63
e 48 67
e 48 69
e 48 70
e 48 72
e 48 74
e 48 75
e 48 78
e 48 79
e 48 83
e 48 84
e 48 86
e 48 89
e 48 90
e 48 92
e 48 93
e 48 94
e 48 97
e 48 102
e 48 103
e 48 104
e 48 105
e 48 109
e 48 110
e 48 113
e 48 114
e 48 115
e 48 117
e 48 120
e 48 121
e 48 122
e 48 124
e 49 52
e 49 53
e 49 54
e 49 55
e 49 57
e 49 61
e 49 62
e 49 63
e 49 64
e 49 67
e 49 68
e 49 71
e 49 75
e 49 76
e 49 77
e 49 78
e 49 80
e 49 83
e 49 87
e 49 88
e 49 91
e 49 97
e 49 98
e 49 99
e 49 100
e 49 102
e 49 103
e 49 105
e 49 106
e 49 107
e 49 111
e 49 112
e 49 113
e 49 114
e 49 115
e 49 117
e 49 118
e 49 123
e 50 52
e 50 54
e 50 55
e 50 56
e 50 57
e 50 58
e 50 60
e 50 62
e 50 64
e 50 66
e 50 67
e 50 68
e 50 69
e 50 73
e 50 78
e 50 79
e 50 82
e 50 87
e 50 92
e 50 93
e 50 94
e 50 95
e 50 96
e 50 97
e 50 99
e 50 100
e 50 103
e 50 104
e 50 105
e 50 106
e 50 108
e 50 111
e 50 112
e 50 113
e 50 117
e 50 120
e 50 121
e 50 123
e 50 124
e 51 53
e 51 54
e 51 56
e 51 59
e 51 60
e 51 61
e 51 65
e 51 69
e 51 70
e 51 74
e 51 75
e 51 77
e 51 78
e 51 81
e 51 84
e 51 86
e 51 89
e 51 90
e 51 92
e 51 94
e 51 95
e 51 96
e 51 97
e 51 99
e 51 100
e 51 101
e 51 102
e 51 104
e 51 105
e 51 106
e 51 107
e 51 108
e 51 109
e 51 111
e 51 119
e 51 120
e 51 122
e 51 123
e 51 125
e 52 58
e 52 60
e 52 64
e 52 65
e 52 66
e 52 67
e 52 71
e 52 74
e 52 75
e 52 77
e 52 80
e 52 82
e 52 83
e 52 87
e 52 88
e 52 91
e 52 92
e 52 94
e 52 95
e 52 97
e 52 98
e 52 99
e 52 103
e 52 104
e 52 108
e 52 111
e 52 112
e 52 113
e 52 114
e 52 116
e 52 117
e 52 118
e 52 119
e 52 122
e 52 124
e 53 54
e 53 55
e 53 56
e 53 60
e 53 61
e 53 63
e 53 64
e 53 65
e 53 68
e 53 70
e 53 71
e 53 72
e 53 73
e 53 75
e 53 76
e 53 80
e 53 81
e 53 83
e 53 87
e 53 91
e 53 94
e 53 95
e 53 101
e 53 103
e 53 106
e 53 109
e 53 110
e 53 114
e 53 115
e 53 118
e 53 119
e 53 120
e 53 123
e 53 125
e 54 55
e 54 56
e 54 57
e 54 59
e 54 61
e 54 62
e 54 64
e 54 69
e 54 71
e 54 73
e 54 74
e 54 79
e 54 80
e 54 88
e 54 89
e 54 91
e 54 92
e 54 93
e 54 97
e 54 99
e 54 104
e 54 105
e 54 106
e 54 107
e 54 113
e 54 115
e 54 117
e 54 121
e 54 124
e 54 125
e 55 62
e 55 65
e 55 73
e 55 75
e 55 76
e 55 77
e 55 80
e 55 83
e 55 84
e 55 87
e 55 89
e 55 91
e 55 92
e 55 95
e 55 99
e 55 100
e 55 101
e 55 102
e 55 104
e 55 105
e 55 106
e 55 108
e 55 110
e 55 111
e 55 112
e 55 115
e 55 120
e 55 121
e 55 122
e 55 123
e 55 125
e 56 60
e 56 62
e 56 65
e 56 68
e 56 70
e 56 72
e 56 73
e 56 75
e 56 77
e 56 78
e 56 79
e 56 81
e 56 82
e 56 86
e 56 89
e 56 91
e 56 92
e 56 93
e 56 94
e 56 96
e 56 97
e 56 98
e 56 103
e 56 104
e 56 106
e 56 108
e 56 109
e 56 116
e 56 118
e 56 122
e 56 123
e 57 58
e 57 59
e 57 65
e 57 66
e 57 68
e 57 75
e 57 76
e 57 79
e 57 80
e 57 82
e 57 83
e 57 84
e 57 85
e 57 86
e 57 88
e 57 89
e 57 91
e 57 94
e 57 100
e 57 101
e 57 105
e 57 107
e 57 108
e 57 111
e 57 115
e 57 119
e 57 120
e 57 121
e 57 123
e 57 124
e 58 60
e 58 61
e 58 68
e 58 69
e 58 70
e 58 73
e 58 75
e 58 76
e 58 77
e 58 81
e 58 82
e 58 84
e 58 85
e 58 88
e 58 89
e 58 90
e 58 91
e 58 92
e 58 94
e 58 96
e 58 103
e 58 104
e 58 105
e 58 106
e 58 109
e 58 110
e 58 112
e 58 113
e 58 114
e 58 117
e 58 119
e 58 123
e 58 124
e 58 125
e 59 60
e 59 63
e 59 64
e 59 66
e 59 68
e 59 73
e 59 78
e 59 79
e 59 85
e 59 86
e 59 88
e 59 89
e 59 92
e 59 93
e 59 95
e 59 96
e 59 98
e 59 101
e 59 102
e 59 105
e 59 107
e 59 109
e 59 113
e 59 114
e 59 115
e 59 117
e 59 118
e 59 124
e 60 61
e 60 66
e 60 67
e 60 68
e 60 69
e 60 78
e 60 80
e 60 81
e 60 82
e 60 83
e 60 84
e 60 85
e 60 86
e 60 89
e 60 90
e 60 91
e 60 93
e 60 94
e 60 95
e 60 96
e 60 99
e 60 105
e 60 106
e 60 109
e 60 112
e 60 113
e 60 120
e 60 124
e 61 63
e 61 64
e 61 65
e 61 66
e 61 68
e 61 75
e 61 76
e 61 82
e 61 83
e 61 84
e 61 85
e 61 87
e 61 88
e 61 89
e 61 90
e 61 91
e 61 93
e 61 95
e 61 96
e 61 99
e 61 104
e 61 105
e 61 107
e 61 108
e 61 110
e 61 111
e 61 114
e 61 115
e 61 118
e 61 119
e 61 122
e 61 124
e 62 64
e 62 65
e 62 67
e 62 69
e 62 70
e 62 72
e 62 73
e 62 74
e 62 75
e 62 79
e 62 83
e 62 85
e 62 86
e 62 94
e 62 95
e 62 96
e 62 97
e 62 98
e 62 99
e 62 100
e 62 102
e 62 103
e 62 105
e 62 108
e 62 112
e 62 113
e 62 115
e 62 116
e 62 118
e 62 121
e 62 123
e 62 124
e 63 64
e 63 65
e 63 66
e 63 67
e 63 69
e 63 71
e 63 72
e 63 73
e 63 74
e 63 77
e 63 79
e 63 80
e 63 82
e 63 83
e 63 84
e 63 88
e 63 91
e 63 92
e 63 93
e 63 94
e 63 97
e 63 100
e 63 102
e 63 103
e 63 107
e 63 108
e 63 109
e 63 112
e 63 113
e 63 115
e 63 116
e 63 123
e 64 67
e 64 69
e 64 70
e 64 71
e 64 72
e 64 73
e 64 76
e 64 81
e 64 86
e 64 91
e 64 92
e 64 95
e 64 96
e 64 99
e 64 102
e 64 103
e 64 105
e 64 108
e 64 110
e 64 111
e 64 114
e 64 115
e 64 117
e 64 119
e 64 121
e 64 122
e 64 124
e 64 125
e 65 68
e 65 70
e 65 72
e 65 75
e 65 76
e 65 79
e 65 80
e 65 81
e 65 83
e 65 84
e 65 85
e 65 86
e 65 87
e 65 90
e 65 91
e 65 92
e 65 93
e 65 94
e 65 102
e 65 103
e 65 104
e 65 105
e 65 106
e 65 108
e 65 118
e 66 67
e 66 68
e 66 69
e 66 71
e 66 72
e 66 78
e 66 79
e 66 80
e 66 81
e 66 89
e 66 90
e 66 91
e 66 92
e 66 93
e 66 96
e 66 97
e 66 105
e 66 106
e 66 107
e 66 108
e 66 110
e 66 111
e 66 112
e 66 113
e 66 114
e 66 115
e 66 116
e 66 121
e 66 123
e 66 125
e 67 68
e 67 69
e 67 70
e 67 72
e 67 75
e 67 78
e 67 79
e 67 81
e 67 82
e 67 85
e 67 88
e 67 89
e 67 90
e 67 94
e 67 96
e 67 98
e 67 102
e 67 103
e 67 105
e 67 108
e 67 110
e 67 112
e 67 113
e 67 114
e 67 116
e 67 117
e 67 119
e 67 121
e 68 69
e 68 70
e 68 71
e 68 78
e 68 79
e 68 81
e 68 84
e 68 85
e 68 87
e 68 89
e 68 90
e 68 92
e 68 94
e 68 95
e 68 96
e 68 98
e 68 100
e 68 101
e 68 102
e 68 103
e 68 105
e 68 107
e 68 108
e 68 109
e 68 113
e 68 117
e 68 118
e 69 70
e 69 72
e 69 74
e 69 78
e 69 80
e 69 81
e 69 82
e 69 83
e 69 90
e 69 91
e 69 93
e 69 95
e 69 97
e 69 99
e 69 100
e 69 104
e 69 109
e 69 110
e 69 111
e 69 117
e 69 122
e 69 123
e 70 72
e 70 74
e 70 75
e 70 76
e 70 78
e 70 80
e 70 84
e 70 88
e 70 89
e 70 90
e 70 96
e 70 102
e 70 113
e 70 114
e 70 117
e 70 119
e 70 122
e 70 123
e 70 124
e 70 125
e 71 72
e 71 73
e 71 74
e 71 76
e 71 78
e 71 81
e 71 86
e 71 87
e 71 88
e 71 91
e 71 93
e 71 95
e 71 98
e 71 102
e 71 104
e 71 105
e 71 106
e 71 108
e 71 109
e 71 113
e 71 115
e 71 116
e 71 123
e 71 124
e 71 125
e 72 73
e 72 74
e 72 77
e 72 79
e 72 82
e 72 83
e 72 84
e 72 87
e 72 88
e 72 89
e 72 90
e 72 91
e 72 94
e 72 95
e 72 97
e 72 98
e 72 100
e 72 105
e 72 109
e 72 110
e 72 111
e 72 112
e 72 116
e 72 117
e 72 119
e 72 121
e 72 123
e 73 75
e 73 81
e 73 82
e 73 83
e 73 87
e 73 88
e 73 89
e 73 90
e 73 92
e 73 94
e 73 95
e 73 96
e 73 98
e 73 101
e 73 102
e 73 105
e 73 106
e 73 108
e 73 113
e 73 114
e 73 115
e 73 117
e 73 118
e 73 121
e 73 122
e 73 124
e 73 125
e 74 76
e 74 77
e 74 79
e 74 80
e 74 81
e 74 82
e 74 83
e 74 84
e 74 85
e 74 87
e 74 88
e 74 90
e 74 92
e 74 95
e 74 96
e 74 97
e 74 98
e 74 99
e 74 100
e 74 103
e 74 104
e 74 106
e 74 107
e 74 108
e 74 110
e 74 111
e 74 114
e 74 115
e 74 119
e 74 121
e 74 123
e 75 79
e 75 80
e 75 81
e 75 83
e 75 86
e 75 93
e 75 96
e 75 97
e 75 98
e 75 99
e 75 100
e 75 102
e 75 107
e 75 108
e 75 110
e 75 111
e 75 113
e 75 115
e 75 116
e 75 117
e 75 118
e 75 119
e 75 120
e 75 122
e 76 79
e 76 80
e 76 84
e 76 86
e 76 87
e 76 88
e 76 89
e 76 90
e 76 91
e 76 94
e 76 97
e 76 98
e 76 100
e 76 101
e 76 102
e 76 103
e 76 109
e 76 110
e 76 111
e 76 112
e 76 113
e 76 116
e 76 117
e 76 118
e 76 120
e 76 122
e 77 78
e 77 79
e 77 81
e 77 83
e 77 86
e 77 88
e 77 89
e 77 90
e 77 92
e 77 97
e 77 98
e 77 100
e 77 101
e 77 102
e 77 103
e 77 104
e 77 105
e 77 111
e 77 114
e 77 116
e 77 117
e 77 119
e 77 120
e 77 125
e 78 79
e 78 80
e 78 82
e 78 84
e 78 85
e 78 86
e 78 89
e 78 93
e 78 96
e 78 97
e 78 98
e 78 99
e 78 101
e 78 104
e 78 106
e 78 112
e 78 115
e 78 119
e 78 122
e 78 124
e 79 85
e 79 86
e 79 87
e 79 90
e 79 91
e 79 93
e 79 97
e 79 99
e 79 102
e 79 103
e 79 104
e 79 108
e 79 110
e 79 113
e 79 116
e 79 121
e 79 122
e 80 83
e 80 85
e 80 88
e 80 89
e 80 90
e 80 94
e 80 95
e 80 96
e 80 97
e 80 99
e 80 102
e 80 103
e 80 104
e 80 109
e 80 113
e 80 116
e 80 117
e 80 119
e 80 123
e 80 125
e 81 84
e 81 85
e 81 86
e 81 91
e 81 92
e 81 94
e 81 95
e 81 96
e 81 97
e 81 100
e 81 101
e 81 106
e 81 107
e 81 108
e 81 109
e 81 110
e 81 111
e 81 112
e 81 118
e 81 121
e 81 122
e 82 83
e 82 86
e 82 87
e 82 89
e 82 93
e 82 94
e 82 96
e 82 97
e 82 99
e 82 100
e 82 101
e 82 102
e 82 105
e 82 108
e 82 109
e 82 111
e 82 112
e 82 114
e 82 116
e 82 118
e 82 125
e 83 87
e 83 90
e 83 93
e 83 94
e 83 98
e 83 100
e 83 101
e 83 104
e 83 105
e 83 106
e 83 107
e 83 110
e 83 113
e 83 114
e 83 116
e 83 120
e 83 121
e 83 124
e 84 86
e 84 87
e 84 88
e 84 90
e 84 91
e 84 94
e 84 96
e 84 97
e 84 99
e 84 100
e 84 101
e 84 104
e 84 105
e 84 107
e 84 109
e 84 115
e 84 116
e 84 119
e 84 121
e 84 123
e 84 124
e 85 87
e 85 88
e 85 90
e 85 91
e 85 95
e 85 96
e 85 98
e 85 100
e 85 101
e 85 103
e 85 104
e 85 105
e 85 107
e 85 108
e 85 109
e 85 112
e 85 115
e 85 118
e 85 120
e 85 122
e 85 123
e 85 125
e 86 87
e 86 91
e 86 93
e 86 94
e 86 95
e 86 96
e 86 98
e 86 100
e 86 102
e 86 106
e 86 110
e 86 111
e 86 112
e 86 114
e 86 118
e 86 119
e 86 120
e 87 89
e 87 93
e 87 94
e 87 95
e 87 99
e 87 102
e 87 103
e 87 107
e 87 108
e 87 110
e 87 112
e 87 119
e 87 122
e 87 125
e 88 91
e 88 93
e 88 96
e 88 97
e 88 98
e 88 99
e 88 101
e 88 103
e 88 105
e 88 111
e 88 112
e 88 114
e 88 115
e 88 116
e 88 123
e 88 124
e 88 125
e 89 91
e 89 96
e 89 97
e 89 101
e 89 105
e 89 106
e 89 108
e 89 109
e 89 111
e 89 112
e 89 114
e 89 120
e 89 122
e 89 123
e 90 91
e 90 94
e 90 96
e 90 97
e 90 98
e 90 99
e 90 104
e 90 108
e 90 109
e 90 114
e 90 118
e 90 121
e 90 122
e 90 123
e 91 98
e 91 99
e 91 100
e 91 105
e 91 106
e 91 107
e 91 108
e 91 109
e 91 110
e 91 111
e 91 116
e 91 117
e 91 118
e 91 125
e 92 93
e 92 95
e 92 102
e 92 104
e 92 106
e 92 109
e 92 110
e 92 112
e 92 117
e 92 120
e 92 121
e 92 123
e 92 124
e 93 100
e 93 101
e 93 106
e 93 107
e 93 110
e 93 112
e 93 113
e 93 114
e 93 120
e 93 123
e 94 99
e 94 100
e 94 102
e 94 103
e 94 107
e 94 109
e 94 112
e 94 114
e 94 115
e 94 116
e 94 119
e 94 120
e 94 124
e 94 125
e 95 97
e 95 98
e 95 99
e 95 100
e 95 103
e 95 105
e 95 106
e 95 108
e 95 109
e 95 110
e 95 113
e 95 117
e 95 119
e 95 120
e 95 121
e 95 122
e 96 97
e 96 98
e 96 99
e 96 102
e 96 105
e 96 106
e 96 107
e 96 116
e 96 118
e 96 121
e 96 123
e 96 125
e 97 98
e 97 101
e 97 102
e 97 111
e 97 119
e 98 100
e 98 104
e 98 108
e 98 116
e 98 119
e 98 120
e 98 121
e 98 123
e 99 100
e 99 101
e 99 103
e 99 105
e 99 106
e 99 107
e 99 112
e 99 113
e 99 117
e 99 119
e 99 121
e 100 101
e 100 103
e 100 104
e 100 106
e 100 111
e 100 112
e 100 113
e 100 116
e 100 118
e 100 121
e 100 123
e 101 102
e 101 104
e 101 107
e 101 108
e 101 113
e 101 115
e 101 120
e 101 121
e 101 124
e 102 103
e 102 104
e 102 105
e 102 111
e 102 114
e 102 119
e 102 120
e 102 121
e 103 108
e 103 113
e 103 116
e 103 118
e 103 121
e 103 122
e 103 123
e 103 124
e 104 106
e 104 107
e 104 108
e 104 109
e 104 111
e 104 112
e 104 118
e 104 119
e 104 120
e 104 122
e 105 106
e 105 109
e 105 110
e 105 114
e 105 116
e 105 118
e 105 119
e 105 120
e 105 122
e 106 112
e 106 114
e 106 116
e 106 118
e 106 119
e 107 110
e 107 115
e 107 116
e 107 117
e 107 118
e 107 123
e 107 124
e 108 110
e 108 113
e 108 116
e 108 123
e 109 111
e 109 116
e 109 120
e 109 122
e 109 124
e 109 125
e 110 111
e 110 114
e 110 115
e 110 116
e 110 117
e 110 121
e 110 123
e 111 114
e 111 116
e 111 117
e 111 118
e 111 120
e 111 124
e 111 125
e 112 113
e 112 115
e 112 119
e 112 120
e 112 121
e 112 125
e 113 116
e 113 117
e 113 118
e 113 119
e 113 124
e 113 125
e 114 119
e 114 121
e 114 123
e 114 124
e 115 118
e 115 121
e 115 122
e 116 118
e 116 119
e 116 124
e 116 125
e 117 118
e 117 124
e 117 125
e 118 125
e 119 123
e 119 124
e 120 121
e 122 124
e 122 125
